# Solution for model r3_t9_m0_6
# Finished Task: 4 / 9
# Makespan: 444.0, Total Distance: 225.0, Total Time: 0.0082
# R O S F
0 0 5 0.0 0.0
1 1 8 0.0 0.0
2 2 3 0.0 0.0
3 2 -1 358.0 387.0
4 -1 -1 -1.0 -1.0
5 0 9 327.0 358.0
6 -1 -1 -1.0 -1.0
7 -1 -1 -1.0 -1.0
8 1 -1 384.0 415.0
9 0 -1 415.0 444.0
10 -1 -1 -1.0 -1.0
11 -1 -1 -1.0 -1.0
